RAW/XT/fspd-mid/X-n101-k25.vrp_seed-4.out
25090	30.769	171.437
