RAW/XT/fspd-mid/X-n101-k25.vrp_seed-4.sol
Route #1: 92 54 68
Route #2: 13 74 55 76 90
Route #3: 9 16 69
Route #4: 44 77 67
Route #5: 56 94 3
Route #6: 97 91 51
Route #7: 61 27 100 21
Route #8: 8 17 80
Route #9: 63 82 59
Route #10: 38 47 26 48 96 64 34
Route #11: 49 6 37 72 57
Route #12: 32 31 24 46
Route #13: 15 22 41 20 35
Route #14: 58 12 5
Route #15: 52 83 81 50
Route #16: 95 73 53 75
Route #17: 66 84 86 70 1
Route #18: 18 4 25
Route #19: 33 93 79
Route #20: 71 62 99 98 89
Route #21: 14 28 42 78 65 10 39
Route #22: 23 19 11 85 30
Route #23: 7 2 45 43 29 36 87 60 88 40
Cost 25090.000000